data/exact/exact_051.gr
p tdp 45 91
1 2
1 4
1 5
1 6
2 3
3 25
3 5
3 19
4 7
4 8
5 23
5 26
6 16
6 7
6 18
6 19
7 20
7 18
7 21
7 19
7 23
8 38
8 22
8 26
9 10
9 13
9 14
9 15
10 11
10 12
11 13
11 12
12 28
12 29
12 24
12 30
12 27
13 15
13 24
14 15
14 27
16 17
16 18
16 19
18 21
18 23
19 23
20 21
20 22
20 23
22 41
24 28
24 29
24 27
26 44
27 28
27 30
28 31
29 31
29 35
30 31
30 37
31 32
32 33
32 34
32 35
32 36
32 37
33 39
33 40
33 42
33 43
33 45
34 42
34 35
34 37
35 36
36 45
36 37
38 39
39 40
39 41
39 42
39 43
39 44
39 45
40 41
40 42
40 45
43 44
43 45
