solutions/best/exact/exact_051.sol
11
22
3
19
8
33
16
1
7
14
11
13
24
9
12
13
18
16
19
7
18
20
5
20
33
3
44
28
32
30
14
28
29
34
45
36
32
36
39
8
39
40
40
44
39
0
